0 59.0
1 61.0
2 71.0
3 74.0
4 66.0
5 67.0
6 69.0
7 64.0
8 74.0
9 75.0
10 76.0
11 82.0
12 67.0
13 75.0
14 60.0
15 73.0
16 63.0
17 68.0
18 53.0
19 66.0
20 60.0
21 71.0
22 61.0
23 59.0
24 76.0
25 78.0
26 74.0
27 77.0
28 67.0
29 68.0
30 72.0
31 65.0
32 61.0
33 62.0
34 63.0
35 71.0
36 84.0
37 76.0
38 75.0
39 74.0
40 78.0
41 85.0
42 70.0
43 69.0
44 79.0
45 76.0
46 80.0
47 78.0
48 77.0
49 72.0
50 78.0
51 79.0
52 71.0
53 77.0
54 63.0
55 56.0
56 62.0
57 63.0
58 57.0
59 65.0
60 68.0
61 68.0
62 66.0
63 68.0
64 67.0
65 69.0
66 68.0
67 75.0
68 70.0
69 77.0
70 76.0
71 76.0
72 60.0
73 68.0
74 63.0
75 76.0
76 55.0
77 60.0
78 74.0
79 66.0
80 61.0
81 60.0
82 69.0
83 76.0
84 67.0
85 67.0
86 51.0
87 53.0
88 64.0
89 66.0
90 54.0
91 62.0
92 70.0
93 64.0
94 75.0
95 61.0
96 53.0
97 66.0
98 63.0
99 74.0
100 62.0
101 60.0
102 69.0
103 68.0
104 65.0
105 62.0
106 78.0
107 76.0
108 76.0
109 83.0
110 62.0
111 69.0
112 73.0
113 73.0
114 63.0
115 71.0
116 77.0
117 71.0
118 75.0
119 61.0
120 67.0
121 69.0
122 79.0
123 82.0
124 74.0
125 75.0
126 68.0
127 63.0
128 73.0
129 74.0
130 75.0
131 81.0
132 65.0
133 73.0
134 58.0
135 71.0
136 61.0
137 66.0
138 60.0
139 73.0
140 67.0
141 78.0
142 68.0
143 66.0
144 75.0
145 77.0
146 72.0
147 75.0
148 74.0
149 75.0
150 61.0
151 63.0
152 58.0
153 61.0
154 60.0
155 61.0
156 73.0
157 73.0
158 73.0
159 73.0
160 76.0
161 76.0
162 68.0
163 66.0
164 68.0
165 66.0
166 69.0
167 69.0
168 85.0
169 80.0
170 76.0
171 77.0
172 78.0
173 84.0
174 70.0
175 72.0
176 68.0
177 71.0
178 63.0
179 64.0
180 75.0
181 74.0
182 82.0
183 76.0
184 83.0
185 78.0
186 84.0
187 81.0
188 77.0
189 76.0
190 83.0
191 85.0
192 68.0
193 76.0
194 62.0
195 75.0
196 62.0
197 67.0
198 83.0
199 83.0
200 69.0
201 69.0
202 77.0
203 77.0
204 76.0
205 75.0
206 68.0
207 62.0
208 81.0
209 76.0
210 71.0
211 70.0
212 79.0
213 65.0
214 84.0
215 71.0
216 61.0
217 74.0
218 62.0
219 73.0
220 60.0
221 58.0
222 69.0
223 67.0
224 55.0
225 53.0
226 68.0
227 68.0
228 76.0
229 73.0
230 61.0
231 60.0
232 72.0
233 74.0
234 62.0
235 61.0
236 77.0
237 63.0
238 75.0
239 62.0
240 82.0
241 84.0
242 80.0
243 83.0
244 73.0
245 74.0
246 86.0
247 79.0
248 75.0
249 76.0
250 77.0
251 85.0
252 83.0
253 75.0
254 74.0
255 73.0
256 77.0
257 84.0
258 76.0
259 75.0
260 85.0
261 82.0
262 86.0
263 84.0
264 73.0
265 75.0
266 70.0
267 73.0
268 72.0
269 73.0
270 76.0
271 78.0
272 73.0
273 76.0
274 75.0
275 76.0
276 74.0
277 74.0
278 74.0
279 74.0
280 77.0
281 77.0
282 67.0
283 65.0
284 67.0
285 65.0
286 68.0
287 68.0
288 69.0
289 62.0
290 61.0
291 62.0
292 63.0
293 71.0
294 68.0
295 70.0
296 69.0
297 72.0
298 62.0
299 63.0
300 57.0
301 59.0
302 66.0
303 61.0
304 67.0
305 60.0
306 68.0
307 68.0
308 59.0
309 61.0
310 67.0
311 69.0
312 80.0
313 72.0
314 75.0
315 74.0
316 75.0
317 82.0
318 81.0
319 81.0
320 84.0
321 84.0
322 76.0
323 76.0
324 72.0
325 74.0
326 80.0
327 75.0
328 79.0
329 72.0
330 83.0
331 85.0
332 75.0
333 78.0
334 82.0
335 83.0
336 75.0
337 74.0
338 79.0
339 76.0
340 77.0
341 75.0
342 67.0
343 65.0
344 70.0
345 68.0
346 69.0
347 69.0
348 76.0
349 76.0
350 75.0
351 77.0
352 72.0
353 74.0
354 76.0
355 78.0
356 77.0
357 80.0
358 75.0
359 76.0
360 78.0
361 73.0
362 79.0
363 80.0
364 72.0
365 78.0
366 81.0
367 74.0
368 80.0
369 81.0
370 75.0
371 83.0
372 72.0
373 72.0
374 70.0
375 72.0
376 71.0
377 73.0
378 72.0
379 79.0
380 74.0
381 81.0
382 80.0
383 80.0
384 87.0
385 82.0
386 78.0
387 79.0
388 80.0
389 86.0
390 80.0
391 82.0
392 78.0
393 81.0
394 73.0
395 74.0
396 81.0
397 80.0
398 88.0
399 82.0
400 89.0
401 84.0
402 81.0
403 78.0
404 74.0
405 73.0
406 80.0
407 82.0
408 73.0
409 66.0
410 65.0
411 66.0
412 67.0
413 75.0
414 63.0
415 65.0
416 64.0
417 67.0
418 57.0
419 58.0
420 62.0
421 64.0
422 71.0
423 66.0
424 72.0
425 65.0
426 66.0
427 66.0
428 57.0
429 59.0
430 65.0
431 67.0
432 68.0
433 68.0
434 69.0
435 71.0
436 68.0
437 70.0
438 78.0
439 77.0
440 78.0
441 72.0
442 78.0
443 73.0
444 76.0
445 78.0
446 75.0
447 70.0
448 77.0
449 70.0
450 76.0
451 79.0
452 77.0
453 72.0
454 79.0
455 71.0
456 77.0
457 84.0
458 80.0
459 87.0
460 77.0
461 77.0
462 78.0
463 75.0
464 71.0
465 70.0
466 78.0
467 80.0
468 80.0
469 80.0
470 70.0
471 72.0
472 77.0
473 79.0
474 76.0
475 79.0
476 86.0
477 81.0
478 86.0
479 78.0
480 68.0
481 76.0
482 71.0
483 84.0
484 63.0
485 68.0
486 85.0
487 77.0
488 72.0
489 71.0
490 80.0
491 87.0
492 79.0
493 79.0
494 63.0
495 65.0
496 76.0
497 78.0
498 63.0
499 71.0
500 79.0
501 73.0
502 84.0
503 70.0
504 78.0
505 86.0
506 72.0
507 85.0
508 72.0
509 77.0
510 86.0
511 86.0
512 72.0
513 72.0
514 80.0
515 80.0
516 89.0
517 88.0
518 81.0
519 75.0
520 94.0
521 89.0
522 73.0
523 72.0
524 81.0
525 67.0
526 86.0
527 73.0
528 92.0
529 84.0
530 87.0
531 86.0
532 87.0
533 94.0
534 83.0
535 83.0
536 86.0
537 86.0
538 78.0
539 78.0
540 70.0
541 72.0
542 78.0
543 73.0
544 77.0
545 70.0
546 86.0
547 88.0
548 78.0
549 81.0
550 85.0
551 86.0
552 76.0
553 76.0
554 77.0
555 79.0
556 76.0
557 78.0
558 85.0
559 84.0
560 85.0
561 79.0
562 85.0
563 80.0
564 69.0
565 71.0
566 68.0
567 63.0
568 70.0
569 63.0
570 81.0
571 84.0
572 82.0
573 77.0
574 84.0
575 76.0
576 71.0
577 79.0
578 88.0
579 82.0
580 87.0
581 73.0
582 72.0
583 71.0
584 80.0
585 66.0
586 88.0
587 75.0
588 88.0
589 90.0
590 79.0
591 82.0
592 73.0
593 74.0
594 84.0
595 87.0
596 93.0
597 88.0
598 79.0
599 71.0
600 67.0
601 80.0
602 77.0
603 88.0
604 76.0
605 74.0
606 84.0
607 83.0
608 80.0
609 77.0
610 93.0
611 91.0
612 85.0
613 92.0
614 71.0
615 78.0
616 82.0
617 82.0
618 69.0
619 77.0
620 83.0
621 77.0
622 81.0
623 67.0
624 68.0
625 81.0
626 69.0
627 80.0
628 67.0
629 65.0
630 76.0
631 74.0
632 62.0
633 60.0
634 75.0
635 75.0
636 86.0
637 83.0
638 71.0
639 70.0
640 82.0
641 84.0
642 70.0
643 69.0
644 85.0
645 71.0
646 83.0
647 70.0
648 84.0
649 83.0
650 88.0
651 85.0
652 86.0
653 84.0
654 75.0
655 73.0
656 78.0
657 76.0
658 77.0
659 77.0
660 71.0
661 71.0
662 70.0
663 72.0
664 67.0
665 69.0
666 83.0
667 85.0
668 84.0
669 87.0
670 82.0
671 83.0
672 82.0
673 89.0
674 85.0
675 92.0
676 82.0
677 82.0
678 91.0
679 88.0
680 84.0
681 83.0
682 91.0
683 93.0
684 77.0
685 77.0
686 67.0
687 69.0
688 74.0
689 76.0
690 78.0
691 81.0
692 88.0
693 83.0
694 88.0
695 80.0
696 68.0
697 76.0
698 85.0
699 79.0
700 84.0
701 70.0
702 78.0
703 77.0
704 86.0
705 72.0
706 94.0
707 81.0
708 92.0
709 94.0
710 83.0
711 86.0
712 77.0
713 78.0
714 81.0
715 84.0
716 90.0
717 85.0
718 76.0
719 68.0
720 59.0
721 61.0
722 71.0
723 74.0
724 66.0
725 67.0
726 69.0
727 64.0
728 74.0
729 75.0
730 76.0
731 82.0
732 67.0
733 75.0
734 60.0
735 73.0
736 63.0
737 68.0
738 53.0
739 66.0
740 60.0
741 71.0
742 61.0
743 59.0
744 74.0
745 76.0
746 72.0
747 75.0
748 65.0
749 66.0
750 70.0
751 63.0
752 59.0
753 60.0
754 61.0
755 69.0
756 82.0
757 74.0
758 73.0
759 72.0
760 76.0
761 83.0
762 68.0
763 67.0
764 77.0
765 74.0
766 78.0
767 76.0
768 79.0
769 74.0
770 80.0
771 81.0
772 73.0
773 79.0
774 65.0
775 58.0
776 64.0
777 65.0
778 59.0
779 67.0
780 70.0
781 70.0
782 68.0
783 70.0
784 69.0
785 71.0
786 70.0
787 77.0
788 72.0
789 79.0
790 78.0
791 78.0
792 70.0
793 78.0
794 73.0
795 86.0
796 65.0
797 70.0
798 84.0
799 76.0
800 71.0
801 70.0
802 79.0
803 86.0
804 77.0
805 77.0
806 61.0
807 63.0
808 74.0
809 76.0
810 64.0
811 72.0
812 80.0
813 74.0
814 85.0
815 71.0
816 60.0
817 73.0
818 70.0
819 81.0
820 69.0
821 67.0
822 76.0
823 75.0
824 72.0
825 69.0
826 85.0
827 83.0
828 83.0
829 90.0
830 69.0
831 76.0
832 80.0
833 80.0
834 70.0
835 78.0
836 84.0
837 78.0
838 82.0
839 68.0
840 65.0
841 67.0
842 77.0
843 80.0
844 72.0
845 73.0
846 70.0
847 65.0
848 75.0
849 76.0
850 77.0
851 83.0
852 75.0
853 83.0
854 68.0
855 81.0
856 71.0
857 76.0
858 67.0
859 80.0
860 74.0
861 85.0
862 75.0
863 73.0
864 75.0
865 77.0
866 80.0
867 83.0
868 79.0
869 80.0
870 73.0
871 72.0
872 75.0
873 77.0
874 85.0
875 90.0
876 82.0
877 85.0
878 77.0
879 83.0
880 80.0
881 81.0
882 85.0
883 80.0
884 88.0
885 89.0
886 87.0
887 93.0
888 78.0
889 77.0
890 85.0
891 80.0
892 83.0
893 91.0
894 87.0
895 88.0
896 89.0
897 98.0
898 85.0
899 91.0
900 76.0
901 84.0
902 74.0
903 87.0
904 79.0
905 84.0
906 83.0
907 88.0
908 78.0
909 86.0
910 76.0
911 84.0
912 73.0
913 86.0
914 76.0
915 79.0
916 79.0
917 84.0
918 66.0
919 79.0
920 71.0
921 82.0
922 77.0
923 75.0
924 69.0
925 75.0
926 67.0
927 80.0
928 76.0
929 85.0
930 69.0
931 80.0
932 70.0
933 73.0
934 77.0
935 75.0
936 82.0
937 84.0
938 80.0
939 83.0
940 73.0
941 74.0
942 88.0
943 81.0
944 77.0
945 78.0
946 79.0
947 87.0
948 93.0
949 85.0
950 84.0
951 83.0
952 87.0
953 94.0
954 83.0
955 82.0
956 92.0
957 89.0
958 93.0
959 91.0
960 77.0
961 79.0
962 82.0
963 85.0
964 81.0
965 82.0
966 90.0
967 89.0
968 92.0
969 94.0
970 88.0
971 93.0
972 85.0
973 88.0
974 78.0
975 84.0
976 81.0
977 82.0
978 73.0
979 66.0
980 75.0
981 76.0
982 74.0
983 82.0
984 80.0
985 79.0
986 88.0
987 81.0
988 69.0
989 78.0
990 75.0
991 76.0
992 77.0
993 87.0
994 71.0
995 79.0
996 92.0
997 84.0
998 89.0
999 88.0
1000 94.0
1001 101.0
1002 85.0
1003 90.0
1004 95.0
1005 87.0
1006 76.0
1007 85.0
1008 89.0
1009 88.0
1010 92.0
1011 96.0
1012 79.0
1013 86.0
1014 84.0
1015 83.0
1016 90.0
1017 87.0
1018 96.0
1019 94.0
1020 71.0
1021 77.0
1022 84.0
1023 83.0
1024 80.0
1025 90.0
1026 87.0
1027 84.0
1028 88.0
1029 92.0
1030 81.0
1031 79.0
1032 78.0
1033 73.0
1034 79.0
1035 80.0
1036 72.0
1037 78.0
1038 79.0
1039 72.0
1040 78.0
1041 79.0
1042 73.0
1043 81.0
1044 82.0
1045 82.0
1046 80.0
1047 82.0
1048 81.0
1049 83.0
1050 79.0
1051 86.0
1052 81.0
1053 88.0
1054 87.0
1055 87.0
1056 83.0
1057 78.0
1058 86.0
1059 87.0
1060 85.0
1061 91.0
1062 86.0
1063 85.0
1064 93.0
1065 88.0
1066 87.0
1067 95.0
1068 91.0
1069 92.0
1070 84.0
1071 93.0
1072 80.0
1073 86.0
1074 69.0
1075 62.0
1076 71.0
1077 72.0
1078 70.0
1079 78.0
1080 71.0
1081 70.0
1082 79.0
1083 72.0
1084 70.0
1085 79.0
1086 76.0
1087 77.0
1088 71.0
1089 81.0
1090 65.0
1091 73.0
1092 76.0
1093 76.0
1094 75.0
1095 77.0
1096 83.0
1097 85.0
1098 74.0
1099 82.0
1100 81.0
1101 81.0
1102 72.0
1103 81.0
1104 80.0
1105 82.0
1106 81.0
1107 82.0
1108 73.0
1109 75.0
1110 82.0
1111 89.0
1112 83.0
1113 90.0
1114 92.0
1115 92.0
1116 74.0
1117 83.0
1118 77.0
1119 84.0
1120 76.0
1121 86.0
1122 78.0
1123 85.0
1124 84.0
1125 85.0
1126 82.0
1127 82.0
1128 68.0
1129 76.0
1130 71.0
1131 84.0
1132 63.0
1133 68.0
1134 83.0
1135 75.0
1136 70.0
1137 69.0
1138 78.0
1139 85.0
1140 81.0
1141 81.0
1142 65.0
1143 67.0
1144 78.0
1145 80.0
1146 70.0
1147 78.0
1148 86.0
1149 80.0
1150 91.0
1151 77.0
1152 66.0
1153 74.0
1154 64.0
1155 77.0
1156 69.0
1157 74.0
1158 76.0
1159 81.0
1160 71.0
1161 79.0
1162 79.0
1163 87.0
1164 76.0
1165 89.0
1166 68.0
1167 71.0
1168 71.0
1169 76.0
1170 80.0
1171 72.0
1172 77.0
1173 76.0
1174 82.0
1175 89.0
1176 75.0
1177 80.0
1178 85.0
1179 77.0
1180 62.0
1181 71.0
1182 75.0
1183 74.0
1184 83.0
1185 87.0
1186 70.0
1187 77.0
1188 68.0
1189 68.0
1190 67.0
1191 69.0
1192 75.0
1193 77.0
1194 73.0
1195 81.0
1196 80.0
1197 80.0
1198 57.0
1199 66.0
1200 65.0
1201 67.0
1202 78.0
1203 79.0
1204 70.0
1205 72.0
1206 68.0
1207 76.0
1208 83.0
1209 77.0
1210 86.0
1211 72.0
1212 60.0
1213 63.0
1214 70.0
1215 78.0
1216 76.0
1217 80.0
1218 71.0
1219 65.0
1220 76.0
1221 77.0
1222 81.0
1223 67.0
1224 67.0
1225 80.0
1226 77.0
1227 88.0
1228 76.0
1229 74.0
1230 82.0
1231 81.0
1232 78.0
1233 75.0
1234 91.0
1235 89.0
1236 87.0
1237 94.0
1238 73.0
1239 80.0
1240 84.0
1241 84.0
1242 79.0
1243 87.0
1244 93.0
1245 87.0
1246 91.0
1247 77.0
1248 59.0
1249 72.0
1250 64.0
1251 75.0
1252 70.0
1253 68.0
1254 69.0
1255 75.0
1256 67.0
1257 80.0
1258 79.0
1259 88.0
1260 72.0
1261 83.0
1262 71.0
1263 74.0
1264 78.0
1265 76.0
1266 75.0
1267 74.0
1268 81.0
1269 78.0
1270 87.0
1271 85.0
1272 70.0
1273 76.0
1274 83.0
1275 82.0
1276 66.0
1277 76.0
1278 73.0
1279 70.0
1280 86.0
1281 90.0
1282 79.0
1283 77.0
1284 77.0
1285 84.0
1286 78.0
1287 85.0
1288 87.0
1289 87.0
1290 82.0
1291 91.0
1292 85.0
1293 92.0
1294 68.0
1295 78.0
1296 70.0
1297 77.0
1298 81.0
1299 82.0
1300 79.0
1301 79.0
1302 71.0
1303 79.0
1304 86.0
1305 80.0
1306 89.0
1307 75.0
1308 69.0
1309 72.0
1310 79.0
1311 87.0
1312 83.0
1313 87.0
1314 78.0
1315 72.0
1316 76.0
1317 77.0
1318 81.0
1319 67.0
1320 67.0
1321 69.0
1322 79.0
1323 82.0
1324 74.0
1325 75.0
1326 68.0
1327 63.0
1328 73.0
1329 74.0
1330 75.0
1331 81.0
1332 65.0
1333 73.0
1334 58.0
1335 71.0
1336 61.0
1337 66.0
1338 60.0
1339 73.0
1340 67.0
1341 78.0
1342 68.0
1343 66.0
1344 81.0
1345 83.0
1346 78.0
1347 81.0
1348 80.0
1349 81.0
1350 67.0
1351 69.0
1352 64.0
1353 66.0
1354 79.0
1355 79.0
1356 79.0
1357 82.0
1358 74.0
1359 72.0
1360 74.0
1361 75.0
1362 86.0
1363 81.0
1364 77.0
1365 78.0
1366 79.0
1367 85.0
1368 71.0
1369 73.0
1370 69.0
1371 64.0
1372 76.0
1373 75.0
1374 83.0
1375 84.0
1376 85.0
1377 82.0
1378 78.0
1379 84.0
1380 76.0
1381 84.0
1382 70.0
1383 83.0
1384 70.0
1385 75.0
1386 91.0
1387 91.0
1388 77.0
1389 85.0
1390 84.0
1391 83.0
1392 76.0
1393 89.0
1394 79.0
1395 78.0
1396 87.0
1397 92.0
1398 75.0
1399 88.0
1400 76.0
1401 87.0
1402 74.0
1403 72.0
1404 83.0
1405 81.0
1406 69.0
1407 82.0
1408 90.0
1409 87.0
1410 75.0
1411 86.0
1412 76.0
1413 75.0
1414 91.0
1415 89.0
1416 65.0
1417 67.0
1418 77.0
1419 80.0
1420 72.0
1421 73.0
1422 70.0
1423 65.0
1424 75.0
1425 76.0
1426 77.0
1427 83.0
1428 75.0
1429 83.0
1430 68.0
1431 81.0
1432 71.0
1433 76.0
1434 67.0
1435 80.0
1436 74.0
1437 85.0
1438 75.0
1439 73.0
1440 83.0
1441 85.0
1442 88.0
1443 91.0
1444 87.0
1445 88.0
1446 81.0
1447 80.0
1448 83.0
1449 85.0
1450 93.0
1451 98.0
1452 90.0
1453 93.0
1454 85.0
1455 91.0
1456 88.0
1457 89.0
1458 84.0
1459 79.0
1460 87.0
1461 88.0
1462 86.0
1463 92.0
1464 77.0
1465 76.0
1466 84.0
1467 79.0
1468 82.0
1469 90.0
1470 86.0
1471 87.0
1472 88.0
1473 97.0
1474 84.0
1475 90.0
1476 74.0
1477 82.0
1478 72.0
1479 85.0
1480 77.0
1481 82.0
1482 81.0
1483 86.0
1484 76.0
1485 84.0
1486 74.0
1487 82.0
1488 71.0
1489 84.0
1490 74.0
1491 77.0
1492 77.0
1493 82.0
1494 73.0
1495 86.0
1496 78.0
1497 89.0
1498 84.0
1499 82.0
1500 76.0
1501 82.0
1502 74.0
1503 87.0
1504 83.0
1505 92.0
1506 76.0
1507 87.0
1508 77.0
1509 80.0
1510 84.0
1511 82.0
1512 73.0
1513 75.0
1514 70.0
1515 73.0
1516 72.0
1517 73.0
1518 77.0
1519 79.0
1520 74.0
1521 76.0
1522 82.0
1523 82.0
1524 82.0
1525 85.0
1526 81.0
1527 79.0
1528 81.0
1529 82.0
1530 77.0
1531 79.0
1532 82.0
1533 85.0
1534 81.0
1535 82.0
1536 89.0
1537 88.0
1538 91.0
1539 93.0
1540 86.0
1541 91.0
1542 83.0
1543 86.0
1544 85.0
1545 91.0
1546 88.0
1547 89.0
1548 63.0
1549 65.0
1550 72.0
1551 71.0
1552 71.0
1553 70.0
1554 77.0
1555 79.0
1556 68.0
1557 65.0
1558 67.0
1559 70.0
1560 83.0
1561 83.0
1562 87.0
1563 92.0
1564 75.0
1565 80.0
1566 84.0
1567 84.0
1568 75.0
1569 80.0
1570 83.0
1571 78.0
1572 75.0
1573 73.0
1574 79.0
1575 85.0
1576 70.0
1577 76.0
1578 82.0
1579 80.0
1580 70.0
1581 78.0
1582 79.0
1583 71.0
1584 87.0
1585 82.0
1586 78.0
1587 79.0
1588 80.0
1589 86.0
1590 86.0
1591 88.0
1592 84.0
1593 79.0
1594 89.0
1595 88.0
1596 96.0
1597 97.0
1598 95.0
1599 92.0
1600 88.0
1601 94.0
1602 83.0
1603 78.0
1604 86.0
1605 87.0
1606 85.0
1607 91.0
1608 94.0
1609 93.0
1610 101.0
1611 96.0
1612 85.0
1613 93.0
1614 89.0
1615 90.0
1616 91.0
1617 100.0
1618 87.0
1619 93.0
1620 68.0
1621 70.0
1622 77.0
1623 76.0
1624 80.0
1625 79.0
1626 86.0
1627 88.0
1628 78.0
1629 75.0
1630 70.0
1631 73.0
1632 85.0
1633 84.0
1634 91.0
1635 99.0
1636 73.0
1637 81.0
1638 88.0
1639 87.0
1640 80.0
1641 89.0
1642 90.0
1643 81.0
1644 91.0
1645 88.0
1646 90.0
1647 99.0
1648 82.0
1649 91.0
1650 93.0
1651 90.0
1652 75.0
1653 87.0
1654 93.0
1655 81.0
1656 78.0
1657 86.0
1658 72.0
1659 85.0
1660 72.0
1661 77.0
1662 92.0
1663 92.0
1664 78.0
1665 86.0
1666 90.0
1667 89.0
1668 82.0
1669 95.0
1670 87.0
1671 86.0
1672 95.0
1673 100.0
1674 66.0
1675 74.0
1676 64.0
1677 77.0
1678 69.0
1679 74.0
1680 84.0
1681 89.0
1682 79.0
1683 87.0
1684 78.0
1685 86.0
1686 75.0
1687 88.0
1688 75.0
1689 78.0
1690 78.0
1691 83.0
1692 81.0
1693 81.0
1694 85.0
1695 90.0
1696 85.0
1697 90.0
1698 94.0
1699 94.0
1700 71.0
1701 76.0
1702 84.0
1703 79.0
1704 78.0
1705 77.0
1706 84.0
1707 92.0
1708 74.0
1709 82.0
1710 89.0
1711 88.0
1712 66.0
1713 75.0
1714 88.0
1715 79.0
1716 78.0
1717 77.0
1718 92.0
1719 95.0
1720 69.0
1721 72.0
1722 87.0
1723 86.0
1724 77.0
1725 81.0
1726 86.0
1727 82.0
1728 68.0
1729 81.0
1730 69.0
1731 80.0
1732 67.0
1733 65.0
1734 82.0
1735 80.0
1736 68.0
1737 81.0
1738 87.0
1739 84.0
1740 72.0
1741 83.0
1742 78.0
1743 77.0
1744 93.0
1745 91.0
1746 59.0
1747 72.0
1748 64.0
1749 75.0
1750 70.0
1751 68.0
1752 77.0
1753 83.0
1754 75.0
1755 88.0
1756 78.0
1757 87.0
1758 71.0
1759 82.0
1760 69.0
1761 72.0
1762 76.0
1763 74.0
1764 67.0
1765 65.0
1766 71.0
1767 77.0
1768 71.0
1769 77.0
1770 83.0
1771 81.0
1772 57.0
1773 65.0
1774 78.0
1775 70.0
1776 78.0
1777 75.0
1778 77.0
1779 86.0
1780 74.0
1781 83.0
1782 85.0
1783 82.0
1784 59.0
1785 71.0
1786 82.0
1787 70.0
1788 72.0
1789 71.0
1790 86.0
1791 89.0
1792 60.0
1793 63.0
1794 78.0
1795 77.0
1796 75.0
1797 79.0
1798 77.0
1799 73.0
1800 79.0
1801 81.0
1802 77.0
1803 80.0
1804 70.0
1805 71.0
1806 83.0
1807 76.0
1808 72.0
1809 74.0
1810 80.0
1811 72.0
1812 71.0
1813 74.0
1814 73.0
1815 72.0
1816 82.0
1817 83.0
1818 78.0
1819 80.0
1820 75.0
1821 78.0
1822 77.0
1823 78.0
1824 81.0
1825 83.0
1826 78.0
1827 80.0
1828 79.0
1829 79.0
1830 79.0
1831 82.0
1832 72.0
1833 70.0
1834 72.0
1835 73.0
1836 84.0
1837 77.0
1838 76.0
1839 78.0
1840 83.0
1841 85.0
1842 84.0
1843 77.0
1844 72.0
1845 81.0
1846 83.0
1847 74.0
1848 88.0
1849 80.0
1850 83.0
1851 83.0
1852 89.0
1853 89.0
1854 92.0
1855 84.0
1856 80.0
1857 88.0
1858 91.0
1859 83.0
1860 87.0
1861 86.0
1862 91.0
1863 89.0
1864 79.0
1865 77.0
1866 82.0
1867 81.0
1868 88.0
1869 87.0
1870 88.0
1871 89.0
1872 81.0
1873 83.0
1874 79.0
1875 82.0
1876 72.0
1877 73.0
1878 87.0
1879 80.0
1880 76.0
1881 78.0
1882 92.0
1883 84.0
1884 83.0
1885 86.0
1886 82.0
1887 81.0
1888 91.0
1889 92.0
1890 82.0
1891 84.0
1892 87.0
1893 90.0
1894 86.0
1895 87.0
1896 95.0
1897 94.0
1898 97.0
1899 99.0
1900 93.0
1901 98.0
1902 90.0
1903 93.0
1904 83.0
1905 89.0
1906 86.0
1907 87.0
1908 86.0
1909 79.0
1910 88.0
1911 87.0
1912 93.0
1913 92.0
1914 101.0
1915 94.0
1916 82.0
1917 88.0
1918 90.0
1919 84.0
1920 90.0
1921 82.0
1922 87.0
1923 92.0
1924 83.0
1925 88.0
1926 93.0
1927 85.0
1928 74.0
1929 87.0
1930 90.0
1931 77.0
1932 89.0
1933 88.0
1934 95.0
1935 101.0
1936 76.0
1937 82.0
1938 89.0
1939 88.0
1940 85.0
1941 92.0
1942 93.0
1943 86.0
1944 72.0
1945 74.0
1946 69.0
1947 72.0
1948 71.0
1949 72.0
1950 76.0
1951 78.0
1952 73.0
1953 75.0
1954 81.0
1955 81.0
1956 81.0
1957 84.0
1958 80.0
1959 78.0
1960 80.0
1961 81.0
1962 74.0
1963 76.0
1964 79.0
1965 82.0
1966 78.0
1967 79.0
1968 86.0
1969 85.0
1970 88.0
1971 90.0
1972 83.0
1973 88.0
1974 80.0
1975 83.0
1976 82.0
1977 88.0
1978 85.0
1979 86.0
1980 77.0
1981 79.0
1982 86.0
1983 85.0
1984 85.0
1985 84.0
1986 91.0
1987 93.0
1988 82.0
1989 79.0
1990 81.0
1991 84.0
1992 83.0
1993 83.0
1994 87.0
1995 92.0
1996 75.0
1997 80.0
1998 84.0
1999 84.0
2000 75.0
2001 80.0
2002 83.0
2003 78.0
2004 73.0
2005 71.0
2006 77.0
2007 83.0
2008 68.0
2009 74.0
2010 80.0
2011 78.0
2012 68.0
2013 76.0
2014 77.0
2015 69.0
2016 70.0
2017 63.0
2018 62.0
2019 64.0
2020 68.0
2021 70.0
2022 69.0
2023 62.0
2024 70.0
2025 79.0
2026 78.0
2027 69.0
2028 68.0
2029 61.0
2030 70.0
2031 69.0
2032 76.0
2033 75.0
2034 84.0
2035 77.0
2036 68.0
2037 74.0
2038 76.0
2039 70.0
2040 67.0
2041 69.0
2042 76.0
2043 75.0
2044 77.0
2045 76.0
2046 83.0
2047 85.0
2048 78.0
2049 75.0
2050 68.0
2051 71.0
2052 66.0
2053 73.0
2054 56.0
2055 70.0
2056 65.0
2057 72.0
2058 74.0
2059 72.0
2060 67.0
2061 75.0
2062 58.0
2063 68.0
2064 89.0
2065 81.0
2066 84.0
2067 84.0
2068 88.0
2069 88.0
2070 91.0
2071 83.0
2072 85.0
2073 93.0
2074 98.0
2075 90.0
2076 79.0
2077 71.0
2078 76.0
2079 81.0
2080 80.0
2081 85.0
2082 90.0
2083 82.0
2084 75.0
2085 88.0
2086 88.0
2087 75.0
2088 80.0
2089 80.0
2090 84.0
2091 89.0
2092 82.0
2093 87.0
2094 91.0
2095 91.0
2096 85.0
2097 90.0
2098 82.0
2099 77.0
2100 73.0
2101 80.0
2102 71.0
2103 85.0
2104 79.0
2105 86.0
2106 89.0
2107 88.0
2108 82.0
2109 83.0
2110 74.0
2111 76.0
2112 81.0
2113 80.0
2114 85.0
2115 83.0
2116 80.0
2117 78.0
2118 83.0
2119 82.0
2120 86.0
2121 85.0
2122 91.0
2123 92.0
2124 74.0
2125 73.0
2126 80.0
2127 86.0
2128 75.0
2129 81.0
2130 88.0
2131 87.0
2132 79.0
2133 86.0
2134 84.0
2135 77.0
2136 66.0
2137 64.0
2138 70.0
2139 76.0
2140 68.0
2141 74.0
2142 80.0
2143 78.0
2144 71.0
2145 79.0
2146 78.0
2147 70.0
2148 77.0
2149 75.0
2150 75.0
2151 83.0
2152 74.0
2153 84.0
2154 85.0
2155 84.0
2156 75.0
2157 76.0
2158 76.0
2159 78.0
2160 76.0
2161 71.0
2162 77.0
2163 70.0
2164 79.0
2165 72.0
2166 78.0
2167 73.0
2168 70.0
2169 68.0
2170 70.0
2171 72.0
2172 84.0
2173 79.0
2174 75.0
2175 77.0
2176 77.0
2177 79.0
2178 75.0
2179 70.0
2180 78.0
2181 85.0
2182 78.0
2183 71.0
2184 85.0
2185 78.0
2186 77.0
2187 79.0
2188 75.0
2189 77.0
2190 76.0
2191 69.0
2192 74.0
2193 83.0
2194 78.0
2195 69.0
2196 78.0
2197 79.0
2198 88.0
2199 88.0
2200 86.0
2201 85.0
2202 84.0
2203 87.0
2204 85.0
2205 78.0
2206 87.0
2207 77.0
2208 74.0
2209 69.0
2210 75.0
2211 68.0
2212 75.0
2213 68.0
2214 74.0
2215 69.0
2216 78.0
2217 76.0
2218 75.0
2219 77.0
2220 80.0
2221 75.0
2222 83.0
2223 82.0
2224 83.0
2225 82.0
2226 90.0
2227 85.0
2228 84.0
2229 88.0
2230 81.0
2231 77.0
2232 83.0
2233 76.0
2234 85.0
2235 84.0
2236 85.0
2237 84.0
2238 93.0
2239 86.0
2240 84.0
2241 90.0
2242 85.0
2243 79.0
2244 76.0
2245 75.0
2246 74.0
2247 81.0
2248 72.0
2249 80.0
2250 82.0
2251 83.0
2252 74.0
2253 77.0
2254 76.0
2255 78.0
2256 83.0
2257 78.0
2258 74.0
2259 76.0
2260 82.0
2261 84.0
2262 80.0
2263 75.0
2264 85.0
2265 92.0
2266 91.0
2267 84.0
2268 81.0
2269 76.0
2270 84.0
2271 83.0
2272 92.0
2273 91.0
2274 99.0
2275 94.0
2276 83.0
2277 87.0
2278 89.0
2279 85.0
2280 74.0
2281 76.0
2282 83.0
2283 82.0
2284 86.0
2285 85.0
2286 92.0
2287 94.0
2288 84.0
2289 81.0
2290 76.0
2291 79.0
2292 87.0
2293 93.0
2294 75.0
2295 90.0
2296 82.0
2297 91.0
2298 84.0
2299 83.0
2300 75.0
2301 86.0
2302 68.0
2303 80.0
2304 67.0
2305 60.0
2306 59.0
2307 61.0
2308 65.0
2309 67.0
2310 66.0
2311 59.0
2312 67.0
2313 76.0
2314 75.0
2315 66.0
2316 69.0
2317 62.0
2318 71.0
2319 70.0
2320 77.0
2321 76.0
2322 85.0
2323 78.0
2324 69.0
2325 75.0
2326 77.0
2327 71.0
2328 59.0
2329 61.0
2330 68.0
2331 67.0
2332 69.0
2333 68.0
2334 75.0
2335 77.0
2336 70.0
2337 67.0
2338 60.0
2339 63.0
2340 68.0
2341 75.0
2342 58.0
2343 72.0
2344 67.0
2345 74.0
2346 69.0
2347 67.0
2348 62.0
2349 70.0
2350 53.0
2351 63.0
2352 74.0
2353 75.0
2354 82.0
2355 82.0
2356 81.0
2357 80.0
2358 64.0
2359 63.0
2360 70.0
2361 77.0
2362 71.0
2363 79.0
2364 74.0
2365 80.0
2366 72.0
2367 87.0
2368 72.0
2369 81.0
2370 70.0
2371 77.0
2372 72.0
2373 86.0
2374 71.0
2375 78.0
2376 80.0
2377 83.0
2378 88.0
2379 81.0
2380 89.0
2381 79.0
2382 73.0
2383 74.0
2384 79.0
2385 82.0
2386 82.0
2387 84.0
2388 74.0
2389 73.0
2390 72.0
2391 83.0
2392 65.0
2393 77.0
2394 74.0
2395 72.0
2396 76.0
2397 84.0
2398 66.0
2399 76.0
2400 68.0
2401 71.0
2402 85.0
2403 72.0
2404 79.0
2405 63.0
2406 76.0
2407 70.0
2408 84.0
2409 70.0
2410 87.0
2411 79.0
2412 91.0
2413 86.0
2414 82.0
2415 85.0
2416 69.0
2417 77.0
2418 80.0
2419 81.0
2420 89.0
2421 89.0
2422 73.0
2423 72.0
2424 58.0
2425 61.0
2426 73.0
2427 60.0
2428 71.0
2429 55.0
2430 64.0
2431 62.0
2432 74.0
2433 69.0
2434 77.0
2435 74.0
2436 81.0
2437 78.0
2438 76.0
2439 86.0
2440 63.0
2441 76.0
2442 70.0
2443 69.0
2444 75.0
2445 82.0
2446 59.0
2447 67.0
2448 68.0
2449 62.0
2450 82.0
2451 68.0
2452 80.0
2453 72.0
2454 66.0
2455 64.0
2456 84.0
2457 79.0
2458 78.0
2459 75.0
2460 74.0
2461 78.0
2462 78.0
2463 87.0
2464 64.0
2465 69.0
2466 81.0
2467 87.0
2468 77.0
2469 92.0
2470 69.0
2471 78.0
2472 80.0
2473 75.0
2474 79.0
2475 82.0
2476 76.0
2477 84.0
2478 82.0
2479 79.0
2480 83.0
2481 93.0
2482 78.0
2483 91.0
2484 73.0
2485 77.0
2486 75.0
2487 84.0
2488 78.0
2489 83.0
2490 62.0
2491 69.0
2492 60.0
2493 74.0
2494 68.0
2495 75.0
2496 68.0
2497 69.0
2498 76.0
2499 76.0
2500 75.0
2501 74.0
2502 66.0
2503 65.0
2504 72.0
2505 79.0
2506 73.0
2507 81.0
2508 75.0
2509 81.0
2510 73.0
2511 88.0
2512 73.0
2513 82.0
2514 57.0
2515 64.0
2516 59.0
2517 73.0
2518 58.0
2519 65.0
